robust/generate/spp_dkp_Lefebvre_et_al_2026/src/shortest_path_5_8.kp
50
100

[3.09 1.43 1.6 2.48 2.36 6.23 2.55 4.82 4.75 1.94 2.17 2.2 0.91 6.08 5.68 3.5]

[88 86 100 35 74 76 79 36 76 78 50 1 89 14 60 36]
