robust/generate/spp_dkp_Lefebvre_et_al_2026/src/shortest_path_5_8.lp
\ Model sp_5_8
\ LP format - for model browsing. Use MPS format to capture full model detail.
\ Signature: 0x6daf66c4acd85796
Minimize
  49.98 y[0,1] + 62.77 y[0,2] + 64.07 y[0,3] + 31.89 y[0,4] + 49.98 y[1,0]
   + 16.55 y[1,2] + 22.02 y[1,3] + 71.11 y[1,4] + 62.77 y[2,0]
   + 16.55 y[2,1] + 30.68 y[2,3] + 64.07 y[3,0] + 22.02 y[3,1]
   + 30.68 y[3,2] + 31.89 y[4,0] + 71.11 y[4,1] + 4.998 r[0,1]
   + 6.277 r[0,2] + 6.407 r[0,3] + 3.189 r[0,4] + 4.998 r[1,0]
   + 1.655 r[1,2] + 2.202 r[1,3] + 7.111 r[1,4] + 6.277 r[2,0]
   + 1.655 r[2,1] + 3.068 r[2,3] + 6.407 r[3,0] + 2.202 r[3,1]
   + 3.068 r[3,2] + 3.189 r[4,0] + 7.111 r[4,1]
Subject To
 flow_cons_inner_nodes[0]: - y[0,1] - y[0,2] - y[0,3] - y[0,4] + y[1,0]
   + y[2,0] + y[3,0] + y[4,0] = 0
 flow_cons_inner_nodes[1]: y[0,1] - y[1,0] - y[1,2] - y[1,3] - y[1,4]
   + y[2,1] + y[3,1] + y[4,1] = 0
 flow_cons_inner_nodes[2]: y[0,2] + y[1,2] - y[2,0] - y[2,1] - y[2,3]
   + y[3,2] = 0
 flow_cons_source: - y[0,3] - y[1,3] - y[2,3] + y[3,0] + y[3,1] + y[3,2]
   = 1
 flow_cons_target: y[0,4] + y[1,4] - y[4,0] - y[4,1] = 1
 primal_lower: - 3.09 y[0,1] - 1.43 y[0,2] - 1.6 y[0,3] - 2.48 y[0,4]
   - 2.36 y[1,0] - 6.23 y[1,2] - 2.55 y[1,3] - 4.82 y[1,4] - 4.75 y[2,0]
   - 1.94 y[2,1] - 2.17 y[2,3] - 2.2 y[3,0] - 0.91 y[3,1] - 6.08 y[3,2]
   - 5.68 y[4,0] - 3.5 y[4,1] + 88 u[0,1] + 86 u[0,2] + 100 u[0,3]
   + 35 u[0,4] + 74 u[1,0] + 76 u[1,2] + 79 u[1,3] + 36 u[1,4] + 76 u[2,0]
   + 78 u[2,1] + 50 u[2,3] + u[3,0] + 89 u[3,1] + 14 u[3,2] + 60 u[4,0]
   + 36 u[4,1] <= 100
 mccormick1[0,1]: - u[0,1] + r[0,1] <= 0
 mccormick1[0,2]: - u[0,2] + r[0,2] <= 0
 mccormick1[0,3]: - u[0,3] + r[0,3] <= 0
 mccormick1[0,4]: - u[0,4] + r[0,4] <= 0
 mccormick1[1,0]: - u[1,0] + r[1,0] <= 0
 mccormick1[1,2]: - u[1,2] + r[1,2] <= 0
 mccormick1[1,3]: - u[1,3] + r[1,3] <= 0
 mccormick1[1,4]: - u[1,4] + r[1,4] <= 0
 mccormick1[2,0]: - u[2,0] + r[2,0] <= 0
 mccormick1[2,1]: - u[2,1] + r[2,1] <= 0
 mccormick1[2,3]: - u[2,3] + r[2,3] <= 0
 mccormick1[3,0]: - u[3,0] + r[3,0] <= 0
 mccormick1[3,1]: - u[3,1] + r[3,1] <= 0
 mccormick1[3,2]: - u[3,2] + r[3,2] <= 0
 mccormick1[4,0]: - u[4,0] + r[4,0] <= 0
 mccormick1[4,1]: - u[4,1] + r[4,1] <= 0
 mccormick2[0,1]: - y[0,1] + r[0,1] <= 0
 mccormick2[0,2]: - y[0,2] + r[0,2] <= 0
 mccormick2[0,3]: - y[0,3] + r[0,3] <= 0
 mccormick2[0,4]: - y[0,4] + r[0,4] <= 0
 mccormick2[1,0]: - y[1,0] + r[1,0] <= 0
 mccormick2[1,2]: - y[1,2] + r[1,2] <= 0
 mccormick2[1,3]: - y[1,3] + r[1,3] <= 0
 mccormick2[1,4]: - y[1,4] + r[1,4] <= 0
 mccormick2[2,0]: - y[2,0] + r[2,0] <= 0
 mccormick2[2,1]: - y[2,1] + r[2,1] <= 0
 mccormick2[2,3]: - y[2,3] + r[2,3] <= 0
 mccormick2[3,0]: - y[3,0] + r[3,0] <= 0
 mccormick2[3,1]: - y[3,1] + r[3,1] <= 0
 mccormick2[3,2]: - y[3,2] + r[3,2] <= 0
 mccormick2[4,0]: - y[4,0] + r[4,0] <= 0
 mccormick2[4,1]: - y[4,1] + r[4,1] <= 0
 mccormick3[0,1]: - y[0,1] - u[0,1] + r[0,1] >= -1
 mccormick3[0,2]: - y[0,2] - u[0,2] + r[0,2] >= -1
 mccormick3[0,3]: - y[0,3] - u[0,3] + r[0,3] >= -1
 mccormick3[0,4]: - y[0,4] - u[0,4] + r[0,4] >= -1
 mccormick3[1,0]: - y[1,0] - u[1,0] + r[1,0] >= -1
 mccormick3[1,2]: - y[1,2] - u[1,2] + r[1,2] >= -1
 mccormick3[1,3]: - y[1,3] - u[1,3] + r[1,3] >= -1
 mccormick3[1,4]: - y[1,4] - u[1,4] + r[1,4] >= -1
 mccormick3[2,0]: - y[2,0] - u[2,0] + r[2,0] >= -1
 mccormick3[2,1]: - y[2,1] - u[2,1] + r[2,1] >= -1
 mccormick3[2,3]: - y[2,3] - u[2,3] + r[2,3] >= -1
 mccormick3[3,0]: - y[3,0] - u[3,0] + r[3,0] >= -1
 mccormick3[3,1]: - y[3,1] - u[3,1] + r[3,1] >= -1
 mccormick3[3,2]: - y[3,2] - u[3,2] + r[3,2] >= -1
 mccormick3[4,0]: - y[4,0] - u[4,0] + r[4,0] >= -1
 mccormick3[4,1]: - y[4,1] - u[4,1] + r[4,1] >= -1
Bounds
Binaries
 y[0,1] y[0,2] y[0,3] y[0,4] y[1,0] y[1,2] y[1,3] y[1,4] y[2,0] y[2,1]
 y[2,3] y[3,0] y[3,1] y[3,2] y[4,0] y[4,1] u[0,1] u[0,2] u[0,3] u[0,4]
 u[1,0] u[1,2] u[1,3] u[1,4] u[2,0] u[2,1] u[2,3] u[3,0] u[3,1] u[3,2]
 u[4,0] u[4,1] r[0,1] r[0,2] r[0,3] r[0,4] r[1,0] r[1,2] r[1,3] r[1,4]
 r[2,0] r[2,1] r[2,3] r[3,0] r[3,1] r[3,2] r[4,0] r[4,1]
End
